// s: 50 | m: 100 | l: 120
min: x + y + z; // X ? y ? z ?

0  = 6 sa + 0 ma + 0 la;
0  = 0 sb + 3 mb + 0 lb;
0  = 4 sc + 1 mc + 0 lc;
0  = 2 sd + 2 md + 0 ld;
10 = 1 se + 0 me + 2 le;
30 = 1 sf + 1 mf + 1 lf;
30 = 3 sg + 0 mg + 1 lg;

sa + sb + sc + sd + se + sf + sg = 300;
ma + mb + mc + md + me + mf + mg = 130;
la + lb + lc + ld + le + lf + lg = 100;
